multiobj/instances/uniform/Ter.6.2.1.00.3.in
6 2
0 774 34 397 940 378 
774 0 654 5 8 425 
34 654 0 177 493 205 
397 5 177 0 420 349 
940 8 493 420 0 958 
378 425 205 349 958 0 
0 457 986 476 173 341 
457 0 297 393 900 714 
986 297 0 186 600 524 
476 393 186 0 533 735 
173 900 600 533 0 714 
341 714 524 735 714 0 
0 457 986 476 173 341 
457 0 297 393 900 714 
986 297 0 186 600 524 
476 393 186 0 533 735 
173 900 600 533 0 714 
341 714 524 735 714 0 
