multiobj/solutions/Ter.6.2.1.00.3.out
1 2
1 0 4 5 2 3 
5213542 5213542 
